Minimize

10.0 x_0 + 3.0 x_1 + 1.5 x_2 + 5.0 x_3


Subject To

a0: 1 x_0 + 1 x_1 + 0 x_2 + 0 x_3 >= 1
a1: 1 x_0 + 0 x_1 + 0 x_2 + 0 x_3 >= 1
a2: 1 x_0 + 0 x_1 + 0 x_2 + 0 x_3 >= 1
a3: 1 x_0 + 1 x_1 + 0 x_2 + 0 x_3 >= 1
a4: 0 x_0 + 0 x_1 + 1 x_2 + 1 x_3 >= 1
b0: y_0 + y_1 <= 1
c0: y_1 - x_3 >= 0




 


End
